140
100
47
24
16
45
42
47
27
11
23
17
38
7
9
23
33
14
27
25
48
39
29
3
1
12
13
48
1
10
37
8
19
1
1
34
6
18
25
28
28
11
40
14
42
14
2
25
38
16
36
35
13
29
49
6
50
7
14
1
4
16
27
26
3
23
7
1
17
13
47
50
3
2
35
16
13
20
38
14
41
46
24
12
36
16
25
2
31
29
3
21
11
3
9
24
43
12
3
25
28
28
23
31
1
28
12
17
1
7
4
42
32
12
35
1
31
38
35
26
12
31
7
32
18
18
37
35
10
31
12
11
28
38
32
4
23
4
7
9
33
19
